\ LP format - for model browsing. Use MPS format to capture full model detail.
Minimize
  200 Purc_A[0] + 200 Purc_A[1] + 200 Purc_A[2] + 200 Purc_A[3]
   + 200 Purc_A[4] + 200 Purc_A[5] + 200 Purc_A[6] + 200 Purc_B[0]
   + 200 Purc_B[1] + 200 Purc_B[2] + 200 Purc_B[3] + 200 Purc_B[4]
   + 200 Purc_B[5] + 200 Purc_B[6] + 20 Eab[0] + 20 Eab[1] + 20 Eab[2]
   + 20 Eab[3] + 20 Eab[4] + 20 Eab[5] + 20 Eab[6] + 20 Eba[0] + 20 Eba[1]
   + 20 Eba[2] + 20 Eba[3] + 20 Eba[4] + 20 Eba[5] + 20 Eba[6] + 5 Cab[0]
   + 5 Cab[1] + 5 Cab[2] + 5 Cab[3] + 5 Cab[4] + 5 Cab[5] + 5 Cab[6]
   + 5 Cba[0] + 5 Cba[1] + 5 Cba[2] + 5 Cba[3] + 5 Cba[4] + 5 Cba[5]
   + 5 Cba[6]
Subject To
Bounds
End
